(set-info :smt-lib-version 2.6)
(set-logic QF_UFLRA)
(set-info :source |
MathSat group

|)
(set-info :category "random")
(set-info :status sat)
(declare-fun x0 () Real)
(declare-fun x1 () Real)
(declare-fun x2 () Real)
(declare-fun x3 () Real)
(declare-fun x4 () Real)
(declare-fun x5 () Real)
(declare-fun x6 () Real)
(declare-fun x7 () Real)
(declare-fun x8 () Real)
(declare-fun x9 () Real)
(declare-fun x10 () Real)
(declare-fun x11 () Real)
(declare-fun x12 () Real)
(declare-fun x13 () Real)
(declare-fun x14 () Real)
(declare-fun x15 () Real)
(declare-fun x16 () Real)
(declare-fun x17 () Real)
(declare-fun x18 () Real)
(declare-fun x19 () Real)
(declare-fun x20 () Real)
(declare-fun x21 () Real)
(declare-fun x22 () Real)
(declare-fun x23 () Real)
(declare-fun x24 () Real)
(declare-fun x25 () Real)
(declare-fun x26 () Real)
(declare-fun x27 () Real)
(declare-fun x28 () Real)
(declare-fun x29 () Real)
(declare-fun x30 () Real)
(declare-fun x31 () Real)
(declare-fun x32 () Real)
(declare-fun x33 () Real)
(declare-fun x34 () Real)
(declare-fun x35 () Real)
(declare-fun x36 () Real)
(declare-fun x37 () Real)
(declare-fun x38 () Real)
(declare-fun x39 () Real)
(declare-fun x40 () Real)
(declare-fun x41 () Real)
(declare-fun x42 () Real)
(declare-fun x43 () Real)
(declare-fun x44 () Real)
(declare-fun x45 () Real)
(declare-fun x46 () Real)
(declare-fun x47 () Real)
(declare-fun x48 () Real)
(declare-fun x49 () Real)
(declare-fun f0_1 (Real) Real)
(declare-fun f0_2 (Real Real) Real)
(declare-fun f0_3 (Real Real Real) Real)
(declare-fun f0_4 (Real Real Real Real) Real)
(declare-fun P0 () Bool)
(declare-fun P1 () Bool)
(declare-fun P2 () Bool)
(declare-fun P3 () Bool)
(declare-fun P4 () Bool)
(declare-fun P5 () Bool)
(declare-fun P6 () Bool)
(declare-fun P7 () Bool)
(declare-fun P8 () Bool)
(declare-fun P9 () Bool)
(declare-fun P10 () Bool)
(declare-fun P11 () Bool)
(declare-fun P12 () Bool)
(declare-fun P13 () Bool)
(declare-fun P14 () Bool)
(declare-fun P15 () Bool)
(declare-fun P16 () Bool)
(declare-fun P17 () Bool)
(declare-fun P18 () Bool)
(declare-fun P19 () Bool)
(declare-fun P20 () Bool)
(declare-fun P21 () Bool)
(declare-fun P22 () Bool)
(declare-fun P23 () Bool)
(declare-fun P24 () Bool)
(declare-fun P25 () Bool)
(declare-fun P26 () Bool)
(declare-fun P27 () Bool)
(declare-fun P28 () Bool)
(declare-fun P29 () Bool)
(declare-fun P30 () Bool)
(declare-fun P31 () Bool)
(declare-fun P32 () Bool)
(declare-fun P33 () Bool)
(declare-fun P34 () Bool)
(declare-fun P35 () Bool)
(declare-fun P36 () Bool)
(declare-fun P37 () Bool)
(declare-fun P38 () Bool)
(declare-fun P39 () Bool)
(declare-fun P40 () Bool)
(declare-fun P41 () Bool)
(declare-fun P42 () Bool)
(declare-fun P43 () Bool)
(declare-fun P44 () Bool)
(declare-fun P45 () Bool)
(declare-fun P46 () Bool)
(declare-fun P47 () Bool)
(declare-fun P48 () Bool)
(declare-fun P49 () Bool)
(assert (let ((?v_71 (* 11 x10)) (?v_149 (distinct (+ (- (* 2 x7) (* 27 x24)) (* 5 x36)) 22))) (let ((?v_64 (= (- (- (* 20 x44) (* 10 x47)) ?v_71) 7)) (?v_205 (<= (- (- (* 16 x43) (* 10 x35)) (* 15 x3)) 29)) (?v_80 (* 17 x23)) (?v_151 (* 12 x27)) (?v_19 (* 25 x4))) (let ((?v_28 (<= (- (- ?v_19 (* 7 x45)) (* 19 x20)) 17)) (?v_55 (< (- (- (* 14 x29) (* 6 x22)) (* 20 x45)) 21)) (?v_147 (= x14 (f0_2 x27 x10))) (?v_88 (= (f0_2 x4 x17) x7)) (?v_39 (distinct (f0_2 x45 x28) x48)) (?v_16 (f0_1 x29))) (let ((?v_76 (distinct ?v_16 (f0_2 x0 x48))) (?v_68 (= x1 x29)) (?v_137 (= x30 (f0_1 x19))) (?v_11 (f0_1 x42))) (let ((?v_234 (distinct (f0_2 x38 x9) ?v_11)) (?v_85 (= x2 x32)) (?v_65 (= (f0_1 x49) x43)) (?v_43 (distinct (f0_2 x28 x3) (f0_1 x35))) (?v_122 (distinct (f0_2 x23 x21) (f0_2 x31 x45))) (?v_118 (distinct (f0_2 x10 x19) (f0_2 x10 x15))) (?v_148 (distinct x43 x22)) (?v_50 (= (f0_2 x35 x25) (f0_2 x25 x25))) (?v_168 (= (f0_1 x48) (f0_1 x36))) (?v_192 (distinct (f0_2 x1 x9) (f0_2 x10 x29))) (?v_66 (f0_1 x6))) (let ((?v_89 (distinct (f0_1 x9) ?v_66)) (?v_74 (= (f0_2 x36 x4) (f0_1 x46))) (?v_179 (= (f0_2 x5 x38) (f0_2 x31 x7))) (?v_101 (distinct x46 (f0_2 x26 x24))) (?v_145 (distinct (f0_1 x12) x48)) (?v_125 (= (f0_1 x22) ?v_66)) (?v_47 (= x5 x35)) (?v_31 (f0_1 x45))) (let ((?v_53 (= x14 ?v_31)) (?v_231 (distinct x11 x6)) (?v_114 (= x8 (f0_2 x40 x46))) (?v_224 (= x0 (f0_2 x20 x14))) (?v_30 (= (f0_2 x30 x27) x1)) (?v_228 (distinct (f0_1 x16) x40)) (?v_127 (distinct (f0_2 x22 x2) (f0_1 x4))) (?v_238 (distinct (f0_2 x11 x29) (f0_1 x18))) (?v_105 (= (f0_2 x16 x2) x16)) (?v_155 (= (f0_2 x4 x43) x31)) (?v_81 (distinct x41 x26)) (?v_37 (= x44 (f0_2 x33 x7))) (?v_6 (distinct x18 (f0_2 x48 x10))) (?v_10 (f0_1 x10))) (let ((?v_17 (= ?v_10 (f0_2 x4 x1))) (?v_150 (distinct x7 (f0_1 x15))) (?v_18 (distinct ?v_11 x34)) (?v_58 (= ?v_31 (f0_2 x41 x20))) (?v_25 (distinct x24 ?v_16)) (?v_45 (= (f0_2 x47 x3) x13)) (?v_84 (distinct (f0_2 x28 x44) x36)) (?v_171 (= (f0_1 x5) (f0_1 x23))) (?v_142 (distinct (f0_2 x23 x37) (f0_1 x39))) (?v_77 (= ?v_10 x17)) (?v_36 (= (f0_1 x27) (f0_2 x29 x29))) (?v_109 (distinct (f0_2 x22 x43) (f0_2 x27 x8))) (?v_13 (= ?v_11 (f0_2 x5 x3))) (?v_60 (distinct (f0_2 x37 x9) (f0_2 x37 x34)))) (let ((?v_98 (not ?v_142)) (?v_51 (not ?v_6)) (?v_78 (not P38)) (?v_177 (not ?v_60)) (?v_214 (not P37)) (?v_83 (not P48)) (?v_0 (not ?v_238)) (?v_8 (not P12)) (?v_21 (not ?v_148)) (?v_173 (not P28)) (?v_159 (not P16)) (?v_57 (not ?v_85)) (?v_144 (not ?v_231)) (?v_7 (not ?v_39)) (?v_69 (not ?v_118)) (?v_91 (not P21)) (?v_70 (not P14)) (?v_72 (not ?v_28)) (?v_108 (not ?v_64)) (?v_206 (not P1)) (?v_26 (not P18)) (?v_223 (not ?v_55)) (?v_49 (not ?v_77)) (?v_29 (not ?v_50)) (?v_162 (not P45)) (?v_61 (not ?v_149)) (?v_40 (not ?v_47)) (?v_41 (not P15)) (?v_32 (not ?v_17)) (?v_23 (not P10)) (?v_165 (not ?v_224)) (?v_67 (not ?v_228)) (?v_203 (not ?v_145)) (?v_54 (not ?v_30)) (?v_233 (not P30)) (?v_106 (not P39)) (?v_107 (not ?v_81)) (?v_129 (not P25)) (?v_213 (not P11)) (?v_198 (not P32)) (?v_93 (not P17)) (?v_103 (not ?v_45)) (?v_63 (not ?v_147)) (?v_189 (not P34)) (?v_94 (not ?v_53))) (let ((?v_75 (or ?v_189 ?v_94)) (?v_119 (not ?v_36)) (?v_135 (not ?v_58)) (?v_99 (not ?v_155)) (?v_230 (not ?v_65)) (?v_154 (not ?v_68)) (?v_82 (not P29)) (?v_184 (not P41)) (?v_104 (not P40)) (?v_182 (not ?v_25)) (?v_92 (not ?v_74)) (?v_209 (not ?v_171)) (?v_166 (not P36)) (?v_232 (not ?v_84)) (?v_86 (not ?v_13)) (?v_123 (not P24)) (?v_128 (not ?v_127)) (?v_196 (not ?v_88)) (?v_195 (not ?v_76)) (?v_210 (not ?v_43)) (?v_169 (not P26)) (?v_152 (not ?v_192)) (?v_132 (not P35))) (let ((?v_226 (or ?v_132 P3)) (?v_131 (not P8)) (?v_126 (not ?v_18)) (?v_146 (not P44)) (?v_235 (not P7)) (?v_256 (not P31)) (?v_163 (not P46)) (?v_130 (not P3)) (?v_193 (not ?v_122)) (?v_156 (not ?v_105)) (?v_138 (not ?v_125)) (?v_185 (not P27)) (?v_201 (not P9)) (?v_207 (not P42)) (?v_141 (not ?v_137)) (?v_197 (not P23)) (?v_243 (not P4)) (?v_164 (not P19)) (?v_200 (not P13)) (?v_222 (not ?v_101)) (?v_191 (not P0)) (?v_187 (not P43)) (?v_188 (not P33)) (?v_236 (not ?v_89)) (?v_237 (not ?v_168)) (?v_229 (not ?v_234)) (?v_221 (not ?v_179)) (?v_250 (not ?v_205)) (?v_241 (not P47)) (?v_242 (not P2)) (?v_245 (not ?v_114)) (?v_248 (not ?v_150)) (?v_253 (not P20)) (?v_240 (not P6)) (?v_249 (not P22)) (?v_5 (distinct (- (* 26 x4) (* 9 x37)) 7))) (let ((?v_35 (not ?v_5)) (?v_59 (<= (- (+ (* 17 x33) (* 10 x16)) 0) 0)) (?v_133 (<= (- (+ x1 ?v_19) (* 17 x6)) 0)) (?v_90 (< (- (* 16 x31) (* 7 x7)) 27))) (let ((?v_217 (not ?v_59)) (?v_97 (<= (+ (* 12 x32) ?v_80 (* 24 x13)) 27))) (let ((?v_120 (not ?v_97)) (?v_181 (not ?v_90)) (?v_190 (not ?v_133)) (?v_212 (distinct (+ (* 23 x21) ?v_151 (* 16 x41)) 18))) (let ((?v_170 (not ?v_212)) (?v_227 (<= (+ (* 3 x3) (* 17 x37) (* 10 x14)) 4))) (let ((?v_254 (not ?v_227)) (?v_2 (< (+ (* 20 x6) x43 (* 3 x18)) (- 18))) (?v_87 (= (- (+ (* 18 x26) (* 10 x30)) (* 26 x35)) (- 9))) (?v_1 (<= (+ (* 4 x9) (* 2 x9) (* 25 x19)) (- 23))) (?v_9 (< (- (+ (* (- 2) x16) (* 11 x16)) (* 15 x4)) (- 13))) (?v_34 (<= (+ (* (- 14) x2) (* 4 x8) ?v_80) (- 6)))) (let ((?v_178 (not ?v_34)) (?v_143 (<= (+ (- 0 (* 2 x13)) x41) (- 27))) (?v_3 (<= (+ (- (* 7 x44) x26) (* 5 x9)) (- 14)))) (let ((?v_136 (not ?v_3)) (?v_46 (<= (- (- (* (- 14) x23) (* 17 x42)) (* 14 x42)) 19))) (let ((?v_22 (not ?v_46)) (?v_247 (distinct (- (- (* 7 x48) (* 9 x40)) (* 7 x12)) (- 10)))) (let ((?v_175 (not ?v_247)) (?v_4 (not ?v_1)) (?v_12 (not ?v_2)) (?v_14 (<= (- (- (* (- 5) x18) (* 27 x6)) (* 4 x7)) 0))) (let ((?v_116 (not ?v_14)) (?v_111 (< (- (+ (* 3 x1) (* 2 x8)) (* 6 x13)) (- 29)))) (let ((?v_161 (not ?v_111)) (?v_24 (<= (- (- (* (- 15) x34) (* 2 x11)) (* 19 x42)) 21))) (let ((?v_73 (not ?v_24)) (?v_15 (<= (+ (- (* 7 x30) 0) (* 22 x33)) (- 18))) (?v_216 (not ?v_9)) (?v_100 (< (- (+ (* (- 1) x8) (* 6 x17)) (* 11 x39)) (- 12))) (?v_79 (<= (+ (- (* 17 x46) (* 7 x4)) (* 10 x7)) (- 26)))) (let ((?v_38 (not ?v_79)) (?v_20 (< (+ (* (- 27) x2) (* 7 x29) (* 17 x43)) (- 29)))) (let ((?v_251 (not ?v_20)) (?v_33 (<= (+ (- 0 (* 24 x39)) (* 8 x15)) (- 23))) (?v_27 (= (+ (* (- 20) x21) (* 24 x19) (* 19 x49)) (- 14)))) (let ((?v_56 (not ?v_27)) (?v_115 (<= (+ (- (* (- 19) x16) (* 13 x24)) (* 24 x35)) 24)) (?v_134 (<= (- (- (* (- 2) x3) 0) (* 16 x37)) 11))) (let ((?v_112 (not ?v_134)) (?v_140 (<= (- (- (* 9 x36) (* 13 x41)) (* 20 x9)) (- 6))) (?v_52 (<= (+ (- 0 (* 12 x49)) (* 18 x39)) (- 1)))) (let ((?v_42 (not ?v_52)) (?v_48 (= (+ (- (* (- 10) x7) (* 2 x16)) (* 22 x30)) (- 25))) (?v_139 (not ?v_33)) (?v_218 (<= (+ (- (* 23 x2) (* 21 x2)) (* 17 x18)) (- 12)))) (let ((?v_160 (not ?v_218)) (?v_95 (< (+ (- (* (- 10) x6) (* 20 x14)) (* 20 x4)) (- 27))) (?v_62 (<= (- (- (* 27 x37) (* 26 x38)) (* 2 x32)) (- 16))) (?v_208 (<= (+ (* (- 14) x16) (* 5 x37) (* 26 x15)) 11)) (?v_44 (<= (- (- (* 19 x44) (* 5 x13)) (* 25 x17)) (- 23)))) (let ((?v_102 (not ?v_44)) (?v_96 (= (+ (- (* 22 x35) (* 16 x28)) (* 19 x40)) (- 22)))) (let ((?v_124 (not ?v_96)) (?v_117 (< (- (+ (* (- 10) x13) (* 25 x42)) (* 6 x35)) 11))) (let ((?v_180 (not ?v_117)) (?v_255 (not ?v_62)) (?v_113 (distinct (- (- (* (- 13) x20) ?v_71) (* 9 x13)) (- 5))) (?v_157 (not ?v_15)) (?v_153 (= (- (+ (* (- 1) x44) (* 11 x45)) (* 25 x43)) 0)) (?v_204 (<= (+ (* (- 25) x6) (* 19 x48) (* 4 x27)) 5))) (let ((?v_121 (not ?v_204)) (?v_110 (not ?v_87)) (?v_183 (not ?v_95)) (?v_174 (not ?v_100)) (?v_158 (not ?v_115)) (?v_199 (< (+ (- (* (- 19) x4) (* 19 x15)) (* 7 x42)) (- 15)))) (let ((?v_172 (not ?v_199)) (?v_186 (not ?v_48)) (?v_167 (= (+ (- (* (- 10) x37) (* 5 x19)) ?v_151) (- 1))) (?v_176 (distinct (+ (* (- 6) x15) (* 4 x43) (* 7 x39)) (- 24))) (?v_194 (<= (+ x47 (* 17 x47) (* 2 x38)) (- 11))) (?v_244 (not ?v_143)) (?v_246 (<= (+ (- (* (- 5) x23) (* 16 x33)) (* 5 x38)) 9)) (?v_215 (not ?v_113))) (let ((?v_202 (not ?v_194)) (?v_211 (not ?v_153)) (?v_219 (not ?v_140)) (?v_225 (not ?v_176)) (?v_220 (not ?v_167)) (?v_239 (not ?v_208)) (?v_252 (or ?v_132 ?v_46))) (and (and (and (and (and (and (and (and (and (and (and (and (and (and (and (and (and (and (and (and (and (and (and (and (and (and (and (and (and (and (and (and (and (and (and (and (and (and (and (and (and (and (and (and (and (and (and (and (and (and (and (and (and (and (and (and (and (and (and (and (and (and (and (and (and (and (and (and (and (and (and (and (and (and (and (and (and (and (and (and (and (and (and (and (and (and (and (and (and (and (and (and (and (and (and (and (and (and (and (and (and (and (and (and (and (and (and (and (and (and (and (and (and (and (and (and (and (and (and (and (and (and (and (and (and (and (and (and (and (and (and (and (and (and (and (and (and (and (and (and (and (and (and (and (and (and (and (and (and (and (and (and (and (and (and (and (and (and (and (and (and (and (and (and (and (and (and (and (and (and (and (and (and (and (and (and (and (and (and (and (and (and (and (and (and (and (and (and (and (and (and (and (and (and (and (and (and (and (and (and (and (and (and (and (and (and (and (and (and (and (and (and (and (and (and (and (and (and (and (and (and (and (and (and (and (and (and (and (and (and (and (and (and (and (and (and (and (and (and (and (and (and (and (and (and (and (and (and (and (and (and (and (and (and (and (and (and (and (and (and (and (and (and (and (and (and (and (and (and (and (and (and (and (and (and (and (and (and (and (and (and (and (and (and (and (and (and (and (and (and (and (and (and (and (and (and (and (and (and (and (and (and (and (and (and (and (and (and (and (and (and (and (and (and (and (and (and (and (and (and (and (and (and (and (and (and (and (and (and (and (and (and (and (and (and (and (and (and (and (and (and (and (and (and (and (and (and (and (and (and (and (and (and (and (and (and (and (and (and (and (and (and (and (and (and (and (and (and (and (and (and (and (and (and (and (and (and (and (and (and (and (and (and (and (and (and (and (and (and (and (and (and (and (and (and (and (and (and (and (and (and (and (and (and (and (and (and (and (and (and (and (and (and (and (and (and (and (and (and (and (and (and (and (and (and (and (and (and (and (and (and (and (and (and (and (and (and (and (and (and (and (and (and (and (and (and (and (and (and (and (and (and (and (and (and (and (and (and (and (and (and (and (and (and (and (and (and (and (and (and (and (and (and (and (and (and (and (and (and (and (and (and (and (and (and (and (and (and (and (and (and (and (and (and (and (and (and (and (and (and (and (and (and (and (and (and (and (and (and (and (and (and (and (and (and (and (and (and (and (and (and (and (and (and (and (and (and (and (and (and (and (and (and (and (and (and (and (and (and (and (and (and (and (and (and (and (and (and (and (and (and (and (and (and (and (and (and (and (and (and (and (and (and (and (and (and (and (and (and (and (and (and (and (and (and (and (and (and (and (and (and (and (and (and (and (and (and (and (and (and (and (and (and (and (and (and (and (and (and (or (or ?v_98 ?v_51) ?v_78) (or (or P27 ?v_2) ?v_177)) (or (or P37 ?v_87) ?v_1)) (or (or ?v_214 ?v_83) ?v_0)) (or (or ?v_8 P6) ?v_0)) (or (or ?v_21 ?v_9) P17)) (or (or ?v_178 ?v_173) ?v_30)) (or (or ?v_143 ?v_136) ?v_22)) (or (or ?v_159 ?v_57) ?v_53)) (or (or P28 P10) ?v_144)) (or (or ?v_175 ?v_7) ?v_69)) (or (or ?v_37 ?v_4) P12)) (or (or ?v_91 P35) ?v_12)) (or (or ?v_3 ?v_70) ?v_116)) (or (or ?v_161 ?v_73) ?v_72)) (or (or ?v_35 ?v_4) ?v_108)) (or (or ?v_5 ?v_17) ?v_6)) (or (or ?v_7 P41) ?v_8)) (or (or ?v_206 ?v_26) ?v_25)) (or (or ?v_15 P1) ?v_216)) (or (or ?v_223 ?v_84) ?v_49)) (or (or ?v_100 ?v_38) P29)) (or (or ?v_18 P16) ?v_68)) (or (or ?v_29 ?v_251) ?v_162)) (or (or ?v_33 ?v_56) ?v_115)) (or (or ?v_13 ?v_12) ?v_112)) (or (or ?v_13 ?v_140) P11)) (or (or ?v_7 ?v_65) ?v_14)) (or (or ?v_43 ?v_61) ?v_42)) (or (or ?v_59 ?v_40) ?v_15)) (or (or ?v_48 ?v_76) P41)) (or (or ?v_41 ?v_32) ?v_18)) (or (or ?v_133 ?v_2) P36)) (or (or ?v_20 ?v_21) ?v_23)) (or (or ?v_22 ?v_165) ?v_23)) (or (or ?v_24 ?v_67) ?v_25)) (or (or ?v_168 ?v_26) ?v_27)) (or (or ?v_4 P11) P10)) (or (or ?v_28 ?v_29) ?v_203)) (or (or ?v_54 ?v_58) ?v_32)) (or (or P30 P49) P41)) (or (or P20 ?v_36) ?v_139)) (or (or ?v_233 ?v_34) ?v_106)) (or (or P8 ?v_35) ?v_107)) (or (or ?v_36 P35) ?v_160)) (or (or ?v_129 ?v_37) ?v_213)) (or (or ?v_198 ?v_95) ?v_38)) (or (or ?v_39 ?v_62) ?v_40)) (or (or ?v_41 ?v_18) ?v_42)) (or (or ?v_45 ?v_208) ?v_93)) (or (or ?v_102 ?v_43) ?v_90)) (or (or ?v_44 ?v_103) ?v_18)) (or (or ?v_63 ?v_46) ?v_47)) (or (or ?v_48 ?v_49) ?v_74)) (or (or ?v_14 P40) ?v_50)) (or (or ?v_124 ?v_51) ?v_52)) (or ?v_75 ?v_54)) (or (or ?v_55 ?v_105) ?v_23)) (or (or P23 ?v_88) ?v_49)) (or (or ?v_56 ?v_119) ?v_89)) (or (or ?v_14 ?v_43) ?v_57)) (or (or ?v_135 ?v_217) ?v_60)) (or (or ?v_99 ?v_61) ?v_101)) (or (or ?v_62 P18) ?v_137)) (or (or ?v_18 ?v_63) P48)) (or (or ?v_64 ?v_230) ?v_125)) (or (or ?v_67 ?v_154) ?v_69)) (or (or ?v_180 ?v_82) ?v_54)) (or (or ?v_184 ?v_70) ?v_104)) (or (or ?v_255 ?v_65) ?v_113)) (or (or ?v_33 ?v_27) ?v_72)) (or (or ?v_182 ?v_122) ?v_73)) (or (or P23 ?v_43) ?v_92)) (or ?v_75 ?v_76)) (or (or ?v_69 P41) P15)) (or (or ?v_2 ?v_77) ?v_78)) (or (or ?v_79 ?v_58) ?v_97)) (or (or ?v_44 ?v_209) ?v_81)) (or (or ?v_157 ?v_82) ?v_109)) (or (or P7 P41) ?v_150)) (or (or ?v_166 ?v_83) ?v_232)) (or (or ?v_74 P4) ?v_85)) (or (or ?v_86 ?v_86) ?v_81)) (or (or ?v_87 ?v_53) ?v_76)) (or (or ?v_123 ?v_128) ?v_153)) (or (or P10 ?v_196) ?v_89)) (or (or ?v_195 P23) ?v_90)) (or (or ?v_121 ?v_210) ?v_91)) (or (or ?v_60 ?v_30) ?v_45)) (or (or ?v_92 P39) ?v_86)) (or (or ?v_93 ?v_110) ?v_94)) (or (or ?v_183 ?v_96) ?v_120)) (or (or ?v_98 ?v_114) P47)) (or (or P48 ?v_99) ?v_8)) (or (or ?v_169 ?v_34) P15)) (or (or ?v_174 ?v_101) ?v_102)) (or (or ?v_47 ?v_103) ?v_152)) (or (or ?v_104 ?v_70) ?v_105)) (or ?v_226 ?v_104)) (or (or ?v_106 ?v_64) ?v_205)) (or (or P17 ?v_46) ?v_107)) (or (or ?v_8 ?v_131) ?v_98)) (or (or ?v_38 ?v_42) P15)) (or (or ?v_126 P24) ?v_108)) (or (or ?v_107 ?v_146) ?v_109)) (or (or P42 ?v_38) ?v_110)) (or (or ?v_111 P1) ?v_110)) (or (or ?v_65 ?v_112) ?v_113)) (or (or ?v_45 ?v_114) ?v_158)) (or (or ?v_116 ?v_115) ?v_117)) (or (or ?v_118 ?v_235) P23)) (or (or ?v_119 ?v_44) ?v_62)) (or (or ?v_120 ?v_85) ?v_256)) (or (or P3 ?v_172) ?v_121)) (or (or ?v_163 ?v_63) ?v_88)) (or (or ?v_3 P24) P12)) (or (or ?v_25 ?v_130) ?v_193)) (or (or ?v_156 ?v_112) ?v_123)) (or (or ?v_34 P44) ?v_6)) (or (or ?v_124 ?v_181) ?v_118)) (or (or ?v_138 ?v_53) P13)) (or (or ?v_126 ?v_7) ?v_69)) (or (or P0 ?v_127) ?v_73)) (or (or P24 ?v_9) ?v_88)) (or (or ?v_97 ?v_74) ?v_186)) (or (or ?v_22 ?v_185) ?v_119)) (or (or ?v_128 P9) ?v_129)) (or (or ?v_167 ?v_130) P40)) (or (or ?v_38 ?v_126) ?v_131)) (or (or ?v_49 ?v_0) ?v_106)) (or (or P6 ?v_176) ?v_18)) (or (or ?v_24 ?v_132) ?v_26)) (or (or ?v_15 ?v_201) ?v_190)) (or (or P37 ?v_58) ?v_88)) (or (or ?v_134 ?v_207) P26)) (or (or ?v_135 P33) ?v_136)) (or (or ?v_78 ?v_124) ?v_48)) (or (or P47 P38) ?v_141)) (or (or P15 ?v_138) ?v_139)) (or (or ?v_0 ?v_140) ?v_135)) (or (or ?v_118 ?v_141) ?v_119)) (or (or P34 P6) ?v_100)) (or (or ?v_194 ?v_109) ?v_17)) (or (or ?v_142 P39) ?v_99)) (or (or ?v_244 ?v_114) ?v_197)) (or (or P4 P38) ?v_144)) (or (or ?v_111 ?v_49) ?v_145)) (or (or ?v_146 ?v_43) ?v_147)) (or (or ?v_148 ?v_50) ?v_149)) (or (or ?v_150 ?v_91) ?v_136)) (or (or P47 ?v_170) ?v_152)) (or (or ?v_153 ?v_179) ?v_243)) (or (or ?v_62 ?v_86) ?v_55)) (or (or ?v_154 ?v_155) ?v_65)) (or (or ?v_81 ?v_113) ?v_164)) (or (or ?v_156 ?v_157) ?v_158)) (or (or ?v_20 P43) ?v_126)) (or (or ?v_159 ?v_117) ?v_152)) (or (or ?v_13 ?v_134) P19)) (or (or ?v_160 ?v_12) ?v_96)) (or (or ?v_161 ?v_63) ?v_92)) (or (or ?v_121 ?v_162) ?v_13)) (or (or P29 ?v_131) ?v_163)) (or (or ?v_164 P25) ?v_133)) (or (or ?v_13 ?v_95) ?v_29)) (or (or ?v_165 ?v_1) ?v_142)) (or (or ?v_77 ?v_123) ?v_32)) (or (or ?v_116 ?v_92) ?v_65)) (or (or ?v_166 ?v_167) ?v_200)) (or (or P42 ?v_106) ?v_149)) (or (or ?v_168 ?v_154) ?v_65)) (or (or ?v_169 ?v_26) ?v_106)) (or (or P31 ?v_114) P34)) (or (or ?v_111 ?v_69) ?v_110)) (or (or ?v_125 ?v_222) ?v_170)) (or (or ?v_133 P47) P38)) (or (or ?v_171 ?v_172) P8)) (or (or ?v_28 ?v_35) P34)) (or (or ?v_191 P17) ?v_173)) (or (or P18 ?v_67) ?v_139)) (or (or ?v_49 ?v_25) ?v_146)) (or (or ?v_36 ?v_170) ?v_103)) (or (or ?v_51 ?v_160) ?v_157)) (or (or P44 P6) ?v_5)) (or (or P37 P18) ?v_72)) (or (or ?v_161 ?v_128) ?v_174)) (or (or ?v_246 ?v_41) ?v_2)) (or (or P49 ?v_108) ?v_33)) (or (or ?v_187 ?v_95) P44)) (or (or P35 ?v_175) ?v_188)) (or (or P44 ?v_176) ?v_119)) (or (or P40 ?v_72) ?v_177)) (or (or P15 ?v_117) ?v_142)) (or (or ?v_178 ?v_145) P20)) (or (or ?v_74 ?v_163) ?v_179)) (or (or ?v_82 ?v_35) ?v_180)) (or (or ?v_3 ?v_170) ?v_92)) (or (or ?v_20 P9) P1)) (or (or ?v_72 ?v_110) ?v_119)) (or (or ?v_6 ?v_181) ?v_116)) (or (or ?v_182 ?v_113) ?v_7)) (or (or ?v_91 ?v_106) ?v_183)) (or (or P10 ?v_97) ?v_184)) (or (or ?v_185 ?v_0) ?v_56)) (or (or ?v_100 P41) ?v_129)) (or (or ?v_17 P4) ?v_186)) (or (or ?v_187 ?v_215) ?v_188)) (or (or ?v_172 ?v_189) ?v_190)) (or (or ?v_191 ?v_13) ?v_111)) (or (or ?v_13 ?v_67) ?v_170)) (or (or P40 ?v_186) ?v_161)) (or (or ?v_97 ?v_34) ?v_167)) (or (or ?v_20 ?v_116) ?v_12)) (or (or ?v_56 ?v_133) ?v_26)) (or (or ?v_24 ?v_82) ?v_141)) (or (or ?v_159 ?v_192) P26)) (or (or ?v_69 ?v_193) ?v_59)) (or (or ?v_48 ?v_131) P3)) (or (or P13 ?v_133) ?v_8)) (or (or ?v_21 ?v_202) ?v_159)) (or (or P26 ?v_111) P1)) (or (or ?v_183 ?v_148) ?v_236)) (or (or ?v_159 P6) P20)) (or (or ?v_105 ?v_97) ?v_195)) (or (or ?v_175 ?v_237) ?v_196)) (or (or ?v_70 ?v_38) P6)) (or (or ?v_106 P8) ?v_197)) (or (or ?v_170 ?v_21) ?v_159)) (or (or ?v_87 ?v_28) P49)) (or (or ?v_113 ?v_37) P11)) (or (or ?v_158 ?v_74) ?v_229)) (or (or P29 ?v_122) ?v_168)) (or (or ?v_198 ?v_69) ?v_139)) (or (or ?v_99 P15) P2)) (or (or P37 ?v_135) ?v_112)) (or (or ?v_120 ?v_199) ?v_153)) (or (or ?v_138 ?v_0) ?v_200)) (or (or P26 ?v_17) ?v_79)) (or (or ?v_106 ?v_28) ?v_153)) (or (or ?v_198 ?v_123) ?v_154)) (or (or ?v_211 ?v_27) ?v_57)) (or (or ?v_113 P20) P16)) (or (or ?v_88 ?v_114) P46)) (or (or P29 ?v_201) ?v_169)) (or (or ?v_219 ?v_171) ?v_58)) (or (or ?v_221 ?v_149) ?v_154)) (or (or (not ?v_109) ?v_23) ?v_198)) (or (or ?v_127 ?v_202) ?v_57)) (or (or ?v_203 ?v_204) ?v_103)) (or (or ?v_250 P35) ?v_105)) (or (or (not P5) ?v_168) ?v_102)) (or (or ?v_64 ?v_152) P29)) (or (or P34 ?v_44) P8)) (or (or P2 ?v_6) ?v_172)) (or (or ?v_206 ?v_119) ?v_13)) (or (or ?v_76 ?v_207) ?v_154)) (or (or ?v_32 ?v_106) ?v_73)) (or (or ?v_47 ?v_84) ?v_101)) (or (or ?v_33 ?v_68) P15)) (or (or ?v_174 ?v_166) ?v_208)) (or (or P8 ?v_5) P42)) (or (or ?v_209 ?v_225) ?v_130)) (or (or ?v_82 ?v_2) ?v_55)) (or (or ?v_123 P14) ?v_210)) (or (or ?v_91 ?v_61) ?v_93)) (or (or ?v_176 ?v_145) ?v_254)) (or (or ?v_154 ?v_42) P17)) (or (or ?v_72 P34) ?v_50)) (or (or P6 ?v_105) ?v_84)) (or (or ?v_211 ?v_241) ?v_1)) (or (or ?v_127 ?v_90) ?v_201)) (or (or ?v_34 ?v_115) ?v_242)) (or (or P42 ?v_122) ?v_212)) (or (or ?v_104 ?v_64) ?v_208)) (or (or ?v_182 ?v_115) ?v_171)) (or (or P1 ?v_245) ?v_220)) (or (or ?v_79 ?v_213) ?v_61)) (or (or P35 ?v_59) ?v_181)) (or (or ?v_162 ?v_57) ?v_105)) (or (or ?v_214 ?v_186) ?v_40)) (or (or ?v_12 ?v_12) ?v_95)) (or (or ?v_206 ?v_180) ?v_215)) (or (or ?v_159 ?v_157) ?v_216)) (or (or ?v_110 ?v_63) ?v_48)) (or (or ?v_7 ?v_217) ?v_181)) (or (or ?v_18 P19) ?v_130)) (or (or ?v_61 ?v_218) ?v_152)) (or (or ?v_208 ?v_6) ?v_219)) (or (or ?v_115 ?v_165) ?v_100)) (or (or ?v_184 ?v_26) ?v_108)) (or (or P49 P39) ?v_138)) (or (or ?v_168 ?v_202) ?v_220)) (or (or ?v_142 ?v_202) P19)) (or (or ?v_43 ?v_94) P34)) (or (or ?v_176 ?v_33) ?v_209)) (or (or ?v_28 ?v_153) ?v_92)) (or (or ?v_81 P37) ?v_113)) (or (or ?v_88 ?v_219) ?v_202)) (or (or ?v_23 ?v_26) ?v_144)) (or (or ?v_128 ?v_173) P27)) (or (or ?v_208 ?v_5) ?v_221)) (or (or ?v_168 ?v_43) ?v_222)) (or (or ?v_6 P21) ?v_9)) (or (or ?v_54 ?v_90) ?v_112)) (or (or ?v_150 ?v_148) P43)) (or (or ?v_149 ?v_213) ?v_223)) (or (or P35 ?v_199) ?v_46)) (or (or ?v_202 ?v_104) P49)) (or (or ?v_5 ?v_224) P39)) (or (or ?v_225 ?v_213) ?v_40)) (or ?v_226 P0)) (or (or ?v_227 ?v_175) ?v_176)) (or (or ?v_197 ?v_228) ?v_20)) (or (or ?v_248 P13) ?v_4)) (or (or ?v_97 P45) ?v_5)) (or (or ?v_229 ?v_142) ?v_129)) (or (or ?v_123 ?v_136) ?v_101)) (or (or ?v_81 P33) ?v_112)) (or (or ?v_110 ?v_150) ?v_111)) (or (or ?v_228 ?v_171) P42)) (or (or ?v_52 P40) ?v_230)) (or (or ?v_166 ?v_150) ?v_179)) (or (or ?v_104 ?v_224) ?v_5)) (or (or ?v_214 P23) P14)) (or (or P46 ?v_13) ?v_222)) (or (or ?v_178 P5) ?v_57)) (or (or ?v_221 ?v_227) ?v_44)) (or (or ?v_231 ?v_55) ?v_99)) (or (or ?v_232 ?v_233) P39)) (or (or ?v_89 ?v_57) ?v_187)) (or (or ?v_161 P11) ?v_198)) (or (or ?v_234 ?v_24) ?v_62)) (or (or P15 ?v_79) ?v_137)) (or (or ?v_154 ?v_158) ?v_61)) (or (or ?v_24 ?v_235) ?v_229)) (or (or ?v_228 ?v_159) ?v_170)) (or (or ?v_144 ?v_39) ?v_139)) (or (or ?v_154 ?v_142) ?v_214)) (or (or ?v_91 ?v_64) ?v_1)) (or (or ?v_131 ?v_165) P44)) (or (or ?v_47 ?v_193) ?v_141)) (or (or ?v_106 ?v_230) ?v_253)) (or (or ?v_92 ?v_239) P14)) (or (or ?v_165 ?v_136) ?v_0)) (or (or ?v_195 ?v_134) ?v_51)) (or (or P46 ?v_119) P13)) (or (or ?v_74 ?v_178) ?v_170)) (or (or ?v_240 ?v_28) ?v_236)) (or (or ?v_219 ?v_148) ?v_191)) (or (or ?v_237 ?v_39) ?v_188)) (or (or ?v_72 ?v_192) ?v_173)) (or (or ?v_212 ?v_197) ?v_185)) (or (or ?v_238 ?v_61) ?v_239)) (or (or ?v_60 P48) ?v_125)) (or (or ?v_73 ?v_37) ?v_240)) (or (or ?v_20 ?v_237) ?v_185)) (or (or ?v_157 ?v_62) ?v_221)) (or (or ?v_163 ?v_61) P6)) (or (or P6 ?v_87) ?v_26)) (or (or P49 ?v_236) ?v_37)) (or (or P27 ?v_59) ?v_215)) (or (or ?v_216 ?v_225) ?v_95)) (or (or ?v_12 ?v_0) ?v_29)) (or (or P46 ?v_145) P19)) (or (or ?v_13 ?v_148) P13)) (or (or ?v_220 ?v_241) ?v_1)) (or (or ?v_145 ?v_238) ?v_41)) (or (or ?v_54 ?v_79) ?v_189)) (or (or ?v_102 ?v_126) P0)) (or (or ?v_49 ?v_193) ?v_200)) (or (or ?v_65 ?v_139) ?v_149)) (or (or ?v_153 ?v_242) ?v_114)) (or (or ?v_189 ?v_9) ?v_91)) (or (or P13 ?v_243) ?v_249)) (or (or ?v_22 ?v_133) ?v_57)) (or (or P4 ?v_201) ?v_194)) (or (or ?v_225 ?v_139) P31)) (or (or ?v_211 ?v_178) ?v_47)) (or (or ?v_231 P36) ?v_107)) (or (or ?v_50 P14) ?v_88)) (or (or ?v_219 ?v_210) ?v_130)) (or (or ?v_97 ?v_228) P12)) (or (or ?v_221 ?v_183) ?v_128)) (or (or ?v_144 ?v_2) ?v_232)) (or (or ?v_185 ?v_12) P26)) (or (or ?v_201 ?v_181) ?v_7)) (or (or P2 ?v_18) ?v_69)) (or (or P1 ?v_155) ?v_2)) (or (or ?v_171 ?v_161) ?v_113)) (or (or ?v_175 ?v_225) P20)) (or (or P34 ?v_55) ?v_61)) (or (or P29 P33) ?v_193)) (or (or P20 P8) ?v_102)) (or (or ?v_56 ?v_206) P6)) (or (or ?v_93 P41) ?v_165)) (or (or ?v_109 ?v_237) ?v_32)) (or (or ?v_90 ?v_41) ?v_144)) (or (or P0 P38) ?v_152)) (or (or ?v_27 ?v_51) ?v_22)) (or (or ?v_34 ?v_27) ?v_112)) (or (or ?v_131 ?v_121) P43)) (or (or ?v_244 P7) ?v_134)) (or (or ?v_37 ?v_209) ?v_229)) (or (or ?v_42 ?v_96) P31)) (or (or ?v_186 ?v_40) P28)) (or (or ?v_46 ?v_102) ?v_141)) (or (or P43 ?v_88) ?v_139)) (or (or ?v_245 P23) ?v_1)) (or (or P16 ?v_179) ?v_229)) (or (or (not ?v_246) ?v_232) ?v_147)) (or (or ?v_87 ?v_247) ?v_158)) (or (or ?v_172 ?v_179) ?v_229)) (or (or ?v_117 ?v_236) P19)) (or (or P45 ?v_248) ?v_27)) (or (or ?v_55 ?v_89) ?v_178)) (or (or ?v_9 ?v_115) ?v_53)) (or (or ?v_59 ?v_190) ?v_184)) (or (or ?v_120 ?v_1) ?v_173)) (or (or P46 ?v_114) ?v_228)) (or (or ?v_198 ?v_134) ?v_126)) (or (or ?v_5 ?v_14) ?v_137)) (or (or P20 ?v_93) ?v_132)) (or (or ?v_5 ?v_166) ?v_130)) (or (or ?v_140 ?v_7) ?v_28)) (or (or ?v_115 ?v_116) ?v_233)) (or (or ?v_101 ?v_99) ?v_6)) (or (or ?v_148 ?v_221) ?v_100)) (or (or ?v_139 ?v_236) ?v_154)) (or (or ?v_107 ?v_134) ?v_170)) (or (or ?v_22 P32) ?v_59)) (or (or ?v_196 ?v_160) ?v_219)) (or (or ?v_37 ?v_196) ?v_106)) (or (or ?v_173 ?v_99) ?v_47)) (or (or ?v_249 P30) ?v_135)) (or (or ?v_76 ?v_223) P32)) (or (or ?v_94 ?v_103) ?v_223)) (or (or P14 ?v_42) ?v_126)) (or (or ?v_118 ?v_181) ?v_196)) (or (or ?v_158 ?v_250) P18)) (or (or P27 ?v_154) ?v_28)) (or ?v_252 ?v_44)) (or (or ?v_222 ?v_124) ?v_76)) (or (or P12 ?v_173) ?v_24)) (or (or ?v_108 ?v_142) ?v_146)) (or (or P1 ?v_200) ?v_168)) (or (or ?v_178 ?v_78) ?v_77)) (or (or ?v_149 ?v_108) ?v_104)) (or (or ?v_205 ?v_33) ?v_142)) (or (or P8 ?v_102) ?v_251)) (or (or ?v_78 ?v_176) ?v_133)) (or (or ?v_205 P23) ?v_98)) (or (or ?v_85 ?v_158) ?v_96)) (or (or ?v_123 ?v_94) P31)) (or (or ?v_82 ?v_8) ?v_154)) (or (or ?v_48 ?v_202) ?v_214)) (or (or ?v_26 ?v_234) ?v_238)) (or (or ?v_182 ?v_107) ?v_200)) (or (or ?v_200 P25) ?v_23)) (or (or ?v_208 ?v_102) ?v_109)) (or (or ?v_208 P7) ?v_219)) (or (or ?v_181 ?v_103) ?v_148)) (or (or ?v_160 P17) P8)) (or (or ?v_210 ?v_95) ?v_92)) (or (or ?v_162 ?v_37) ?v_4)) (or (or ?v_157 ?v_17) ?v_249)) (or (or ?v_39 ?v_175) ?v_92)) (or (or ?v_157 ?v_91) ?v_99)) (or (or ?v_232 ?v_223) ?v_103)) (or (or P19 ?v_204) ?v_64)) (or (or P13 ?v_17) ?v_51)) (or (or ?v_232 ?v_45) P24)) (or (or ?v_85 ?v_101) ?v_58)) (or (or ?v_36 ?v_239) P34)) (or (or ?v_209 ?v_17) P16)) (or ?v_252 ?v_153)) (or (or ?v_212 ?v_119) ?v_50)) (or (or ?v_245 ?v_148) ?v_25)) (or (or ?v_117 ?v_15) ?v_118)) (or (or ?v_146 ?v_138) ?v_14)) (or (or ?v_70 ?v_95) P45)) (or (or ?v_70 ?v_140) ?v_149)) (or (or P13 ?v_24) ?v_154)) (or (or P41 ?v_90) ?v_145)) (or (or ?v_187 P15) ?v_60)) (or (or ?v_112 ?v_233) ?v_253)) (or (or ?v_128 ?v_73) ?v_194)) (or (or P45 ?v_28) P32)) (or (or ?v_85 ?v_172) ?v_247)) (or (or ?v_30 P14) ?v_108)) (or (or ?v_218 ?v_6) ?v_241)) (or (or ?v_176 ?v_76) P43)) (or (or ?v_4 ?v_87) ?v_179)) (or (or ?v_89 P8) ?v_138)) (or (or ?v_99 ?v_214) ?v_94)) (or (or P48 ?v_81) ?v_23)) (or (or ?v_117 ?v_20) P26)) (or (or ?v_27 ?v_122) ?v_47)) (or (or ?v_13 ?v_186) P31)) (or (or ?v_70 ?v_235) ?v_195)) (or (or ?v_99 ?v_136) ?v_169)) (or (or ?v_166 ?v_254) ?v_120)) (or (or ?v_15 ?v_192) ?v_249)) (or (or ?v_137 P45) P19)) (or (or P32 ?v_203) ?v_42)) (or (or ?v_88 ?v_230) ?v_231)) (or (or ?v_82 ?v_190) ?v_35)) (or (or ?v_132 P39) ?v_54)) (or (or P25 ?v_251) ?v_213)) (or (or P49 P9) ?v_143)) (or (or ?v_111 ?v_104) ?v_184)) (or (or ?v_137 ?v_65) ?v_243)) (or (or ?v_185 ?v_244) ?v_87)) (or (or ?v_166 ?v_35) ?v_224)) (or (or ?v_134 ?v_255) ?v_223)) (or (or ?v_253 ?v_246) P30)) (or (or ?v_205 ?v_136) ?v_28)) (or (or ?v_157 ?v_98) ?v_145)) (or (or ?v_192 ?v_65) ?v_72)) (or (or ?v_113 ?v_179) ?v_256)) (or (or ?v_159 ?v_89) ?v_22)) (or (or ?v_237 ?v_190) ?v_195)) (or (or ?v_30 ?v_203) ?v_85)) (or (or ?v_39 ?v_222) ?v_43)) (or (or ?v_208 ?v_244) ?v_92)) (or (or ?v_2 ?v_203) ?v_166)) (or (or ?v_232 ?v_161) ?v_188)) (or (or P4 ?v_55) ?v_145)) (or (or ?v_180 ?v_93) P16)) (or (or ?v_50 ?v_25) ?v_46)) (or (or ?v_139 ?v_169) ?v_5)) (or (or ?v_231 ?v_177) ?v_3)) (or (or P42 ?v_204) ?v_211)) (or (or ?v_184 ?v_85) ?v_193)) (or (or ?v_65 ?v_52) ?v_38)) (or (or ?v_2 ?v_213) ?v_177)) (or (or P8 P9) ?v_8)) (or (or ?v_110 ?v_143) P6)) (or (or ?v_95 ?v_53) ?v_256)) (or (or ?v_173 P6) ?v_12)) (or (or ?v_101 ?v_20) P15)) (or (or ?v_150 ?v_155) ?v_125)) (or (or P6 ?v_86) ?v_70)) (or (or ?v_132 ?v_142) P1)) (or (or ?v_68 ?v_152) ?v_235)) (or (or P11 ?v_119) ?v_159)) (or (or ?v_55 ?v_180) ?v_219)) (or (or ?v_57 ?v_122) ?v_30)) (or (or ?v_41 P45) ?v_218)) (or (or ?v_229 P20) ?v_150)) (or (or ?v_77 ?v_5) ?v_171)) (or (or ?v_9 ?v_173) P33)) (or (or ?v_166 P32) ?v_92)) (or (or ?v_34 ?v_254) ?v_125)) (or (or ?v_95 ?v_8) P2)) (or (or ?v_228 ?v_30) ?v_224)) (or (or ?v_25 ?v_163) ?v_129)) (or (or ?v_2 ?v_108) ?v_167)) (or (or ?v_177 ?v_235) P26)) (or (or ?v_50 ?v_35) ?v_124)) (or (or P22 ?v_97) P14)) (or (or ?v_122 ?v_186) ?v_126)) (or (or ?v_110 ?v_74) ?v_81)) (or (or ?v_218 ?v_43) P2)) (or (or ?v_116 ?v_215) ?v_165)) (or (or ?v_88 P25) ?v_55)) (or (or ?v_78 ?v_73) ?v_197)) (or (or ?v_176 ?v_143) ?v_155)) (or (or ?v_115 P14) ?v_204)) (or (or P41 ?v_205) P14)) (or (or ?v_147 P44) P16)) (or (or ?v_160 ?v_161) ?v_148)) (or (or ?v_180 P37) ?v_6)) (or (or ?v_223 ?v_13) ?v_108)) (or (or ?v_69 ?v_150) ?v_214)) (or (or ?v_165 ?v_76) ?v_180)) (or (or ?v_201 ?v_150) P26)) (or (or P37 ?v_103) P45)) (or (or ?v_117 ?v_152) ?v_247)) (or (or ?v_246 P6) ?v_39)) (or (or ?v_44 ?v_235) ?v_67)) (or (or ?v_65 ?v_39) ?v_202)) (or (or ?v_121 ?v_30) ?v_146)) (or (or ?v_143 ?v_79) ?v_235)) (or (or ?v_132 ?v_48) P13)) (or (or ?v_184 ?v_127) ?v_95)) (or (or ?v_79 ?v_45) ?v_51)) (or (or ?v_21 ?v_45) ?v_184)) (or (or ?v_53 ?v_132) ?v_184)) (or (or ?v_29 ?v_38) ?v_17)) (or (or ?v_194 ?v_185) ?v_233)) (or (or ?v_2 ?v_223) P45)) (or (or P41 ?v_29) ?v_219)) (or (or ?v_137 ?v_92) ?v_5)) (or (or P23 ?v_60) ?v_228)) (or (or ?v_133 ?v_116) ?v_3)) (or (or ?v_73 ?v_230) ?v_38)) (or (or ?v_186 P40) ?v_94)) (or (or ?v_255 ?v_235) ?v_210)) (or (or ?v_121 P4) P37)) (or (or ?v_28 ?v_138) P1))))))))))))))))))))))))))))))))))))))
(check-sat)
(exit)
